c   #vars: 117   #clauses: 539   #literals: 1430
c 
p cnf 117 539
-1 -2 0
-3 -4 0
-5 -6 0
-7 -8 0
3 4 66 67 0
47 48 66 67 0
-9 -10 0
-11 -12 0
-13 -14 0
-15 -16 0
-17 -18 0
-19 -20 0
-21 -22 0
32 43 44 -70 0
-24 -25 0
-26 -27 0
-28 -29 0
-30 -31 0
-33 -34 0
-35 -36 0
-37 -38 0
-39 -40 0
-41 -42 0
-43 -44 0
7 8 23 -82 0
-45 -46 0
-47 -48 0
-50 -51 0
-52 -53 0
-54 -55 0
-56 -57 0
-58 -59 0
-60 -61 0
-62 -63 0
-64 -65 0
-66 -67 0
-68 -69 0
-70 -71 0
-72 -73 0
64 65 94 95 0
-74 -75 0
-76 -77 0
84 85 114 115 0
-78 -79 0
-80 -81 0
-82 -83 0
-84 -85 0
-86 -87 0
-88 -89 0
1 2 56 57 0
-90 -91 0
-92 -93 0
-94 -95 0
-96 -97 0
-98 -99 0
-100 -101 0
-102 -103 0
28 29 107 108 0
58 59 84 85 0
-104 -105 0
-107 -108 0
49 82 83 -104 0
-110 -111 0
-112 -113 0
-114 -115 0
3 4 98 99 0
-116 -117 0
28 29 110 111 0
13 14 17 18 0
-1 -13 0
-2 -14 0
-1 -19 0
-2 -20 0
28 29 50 51 0
-1 -45 0
-2 -46 0
56 57 60 61 0
-1 -56 0
-2 -57 0
7 8 110 111 0
-1 -84 0
-2 -85 0
32 -43 70 71 0
19 20 33 34 0
-1 43 44 106 0
7 8 82 83 0
-2 -106 0
30 31 82 83 0
-21 32 43 44 0
-4 -23 0
39 40 50 51 0
-3 -66 0
-4 -67 0
26 27 76 77 0
-3 -68 0
-4 -69 0
3 4 94 95 0
-3 -72 0
-4 -73 0
15 16 39 40 0
-3 -94 0
-4 -95 0
-3 -98 0
-4 -99 0
96 97 112 113 0
-5 -13 0
-6 -14 0
5 6 52 53 0
-5 -24 0
-6 -25 0
49 -86 104 105 0
-5 -33 0
-6 -34 0
52 53 58 59 0
-5 -52 0
-6 -53 0
5 6 24 25 0
-5 -86 0
-6 -87 0
43 44 112 113 0
-5 -94 0
-6 -95 0
66 67 68 69 0
49 82 83 -86 0
-6 -109 0
52 53 54 55 0
21 22 32 -70 0
-8 -23 0
1 2 19 20 0
-7 -30 0
-8 -31 0
19 20 116 117 0
-7 -64 0
-8 -65 0
41 42 60 61 0
-7 -74 0
-8 -75 0
19 20 104 105 0
-7 -82 0
-8 -83 0
19 20 78 79 0
-7 -92 0
-8 -93 0
50 51 114 115 0
-7 -110 0
-8 -111 0
56 57 107 108 0
49 86 87 -104 0
70 71 110 111 0
49 -82 86 87 0
98 99 112 113 0
-9 -43 0
-10 -44 0
-9 -62 0
-10 -63 0
37 38 58 59 0
-9 -70 0
-10 -71 0
7 8 30 31 0
-9 -78 0
-10 -79 0
28 29 112 113 0
-11 -19 0
-12 -20 0
84 85 107 108 0
-11 -24 0
-12 -25 0
15 16 100 101 0
-11 -45 0
-12 -46 0
13 14 107 108 0
-11 -94 0
-12 -95 0
17 18 94 95 0
-13 -17 0
-14 -18 0
33 34 -92 109 0
-13 -68 0
-14 -69 0
-7 23 82 83 0
-13 -107 0
-14 -108 0
88 89 90 91 0
-15 -35 0
-16 -36 0
39 40 107 108 0
-15 -39 0
-16 -40 0
82 83 96 97 0
-15 -100 0
-16 -101 0
64 65 116 117 0
-15 -116 0
-16 -117 0
-17 -80 0
-18 -81 0
5 6 33 34 0
-17 -86 0
-18 -87 0
41 42 78 79 0
-17 -92 0
-18 -93 0
-17 -94 0
-18 -95 0
24 25 82 83 0
-19 -33 0
-20 -34 0
21 22 80 81 0
-19 -78 0
-20 -79 0
-19 -104 0
-20 -105 0
-19 -112 0
-20 -113 0
3 4 68 69 0
-19 -116 0
-20 -117 0
1 2 -43 106 0
-22 -32 0
-21 -50 0
-22 -51 0
-21 -56 0
-22 -57 0
11 12 24 25 0
-21 -80 0
-22 -81 0
41 42 98 99 0
21 22 32 -43 0
-23 -83 0
100 101 114 115 0
-24 -47 0
-25 -48 0
-24 -82 0
-25 -83 0
80 81 112 113 0
-24 -90 0
-25 -91 0
72 73 84 85 0
-26 -68 0
-27 -69 0
11 12 19 20 0
-26 -70 0
-27 -71 0
30 31 76 77 0
-26 -76 0
-27 -77 0
30 31 41 42 0
-26 -116 0
-27 -117 0
35 36 72 73 0
-28 -50 0
-29 -51 0
15 16 35 36 0
-28 -94 0
-29 -95 0
30 31 100 101 0
-28 -107 0
-29 -108 0
84 85 96 97 0
-28 -110 0
-29 -111 0
74 75 92 93 0
-28 -112 0
-29 -113 0
-30 -41 0
-31 -42 0
-30 -64 0
-31 -65 0
76 77 78 79 0
-30 -76 0
-31 -77 0
43 44 104 105 0
-30 -82 0
-31 -83 0
9 10 43 44 0
-30 -100 0
-31 -101 0
92 93 96 97 0
-32 -44 0
-32 -71 0
35 36 84 85 0
-33 -72 0
-34 -73 0
1 2 84 85 0
-34 -109 0
35 36 37 38 0
-35 -37 0
-36 -38 0
62 63 76 77 0
-35 -72 0
-36 -73 0
-35 -82 0
-36 -83 0
7 8 64 65 0
-35 -84 0
-36 -85 0
45 46 88 89 0
-37 -41 0
-38 -42 0
11 12 45 46 0
-37 -47 0
-38 -48 0
-37 -58 0
-38 -59 0
35 36 82 83 0
-37 -114 0
-38 -115 0
-39 -41 0
-40 -42 0
54 55 102 103 0
-39 -50 0
-40 -51 0
37 38 47 48 0
-39 -60 0
-40 -61 0
24 25 47 48 0
-39 -100 0
-40 -101 0
47 48 74 75 0
-39 -107 0
-40 -108 0
62 63 96 97 0
-41 -60 0
-42 -61 0
17 18 80 81 0
-41 -78 0
-42 -79 0
50 51 104 105 0
-41 -98 0
-42 -99 0
70 71 112 113 0
-41 -100 0
-42 -101 0
70 71 92 93 0
-43 -82 0
-44 -83 0
98 99 110 111 0
-43 -104 0
-44 -105 0
66 67 114 115 0
-44 -106 0
52 53 90 91 0
-43 -107 0
-44 -108 0
47 48 52 53 0
-43 -112 0
-44 -113 0
-3 7 8 23 0
-43 102 103 106 0
28 29 94 95 0
3 4 23 -82 0
-1 102 103 106 0
7 8 74 75 0
5 6 -33 109 0
43 44 -102 106 0
21 22 50 51 0
-45 -70 0
-46 -71 0
88 89 102 103 0
-45 -88 0
-46 -89 0
56 57 102 103 0
56 57 116 117 0
-47 -52 0
-48 -53 0
21 22 56 57 0
-47 -66 0
-48 -67 0
1 2 13 14 0
-47 -74 0
-48 -75 0
-49 -83 0
33 34 72 73 0
-49 -87 0
58 59 100 101 0
-49 -105 0
70 71 107 108 0
-50 -104 0
-51 -105 0
-5 92 93 109 0
-50 -114 0
-51 -115 0
54 55 58 59 0
54 55 68 69 0
-52 -54 0
-53 -55 0
58 59 86 87 0
-52 -58 0
-53 -59 0
58 59 80 81 0
-52 -64 0
-53 -65 0
1 2 45 46 0
-52 -90 0
-53 -91 0
13 14 68 69 0
-54 -58 0
-55 -59 0
26 27 68 69 0
-54 -68 0
-55 -69 0
78 79 90 91 0
-54 -100 0
-55 -101 0
-54 -102 0
-55 -103 0
39 40 60 61 0
-56 -60 0
-57 -61 0
-56 -102 0
-57 -103 0
60 61 88 89 0
-56 -107 0
-57 -108 0
3 4 72 73 0
-56 -116 0
-57 -117 0
17 18 86 87 0
-58 -80 0
-59 -81 0
52 53 64 65 0
-58 -84 0
-59 -85 0
11 12 94 95 0
-58 -86 0
-59 -87 0
30 31 64 65 0
-58 -100 0
-59 -101 0
62 63 80 81 0
-60 -64 0
-61 -65 0
9 10 62 63 0
-60 -74 0
-61 -75 0
-60 -88 0
-61 -89 0
9 10 78 79 0
-62 -76 0
-63 -77 0
-62 -80 0
-63 -81 0
-62 -90 0
-63 -91 0
76 77 98 99 0
-62 -96 0
-63 -97 0
7 8 92 93 0
-64 -94 0
-65 -95 0
-64 -116 0
-65 -117 0
-5 33 34 109 0
-66 -68 0
-67 -69 0
62 63 90 91 0
3 4 -7 23 0
-66 -90 0
-67 -91 0
26 27 116 117 0
-66 -114 0
-67 -115 0
-70 -92 0
-71 -93 0
43 44 82 83 0
-70 -107 0
-71 -108 0
37 38 114 115 0
-70 -110 0
-71 -111 0
5 6 94 95 0
-70 -112 0
-71 -113 0
-33 92 93 109 0
-72 -84 0
-73 -85 0
66 67 90 91 0
54 55 100 101 0
-3 23 82 83 0
86 87 107 108 0
-74 -92 0
-75 -93 0
1 2 -102 106 0
-76 -78 0
-77 -79 0
45 46 70 71 0
-76 -98 0
-77 -99 0
5 6 86 87 0
-78 -90 0
-79 -91 0
5 6 -92 109 0
-80 -112 0
-81 -113 0
5 6 13 14 0
-82 -96 0
-83 -97 0
24 25 90 91 0
-84 -96 0
-85 -97 0
84 85 100 101 0
-84 -100 0
-85 -101 0
41 42 100 101 0
-84 -107 0
-85 -108 0
15 16 116 117 0
-84 -114 0
-85 -115 0
43 44 107 108 0
39 40 100 101 0
-86 -107 0
-87 -108 0
60 61 74 75 0
-88 -90 0
-89 -91 0
49 -82 104 105 0
-88 -102 0
-89 -103 0
26 27 70 71 0
-92 -96 0
-93 -97 0
60 61 64 65 0
-93 -109 0
19 20 112 113 0
9 10 70 71 0
-96 -112 0
-97 -113 0
-98 -110 0
-99 -111 0
37 38 41 42 0
-98 -112 0
-99 -113 0
17 18 92 93 0
-100 -114 0
-101 -115 0
-21 32 70 71 0
-103 -106 0
39 40 41 42 0
